
Gurobi 9.1.2 (win64) logging started Sun Dec  5 20:48:50 2021

Gurobi Optimizer version 9.1.2 build v9.1.2rc0 (win64)
Thread count: 8 physical cores, 8 logical processors, using up to 8 threads
Optimize a model with 1 rows, 149 columns and 148 nonzeros
Model fingerprint: 0x0f95a9a4
Variable types: 1 continuous, 148 integer (148 binary)
Coefficient statistics:
  Matrix range     [1e+00, 1e+01]
  Objective range  [1e+00, 1e+00]
  Bounds range     [7e+01, 7e+01]
  RHS range        [1e+01, 1e+01]
Presolve time: 0.00s
Presolved: 1 rows, 149 columns, 148 nonzeros
Variable types: 1 continuous, 148 integer (148 binary)

Root simplex log...

Iteration    Objective       Primal Inf.    Dual Inf.      Time
       0   -6.7205294e+01   4.900616e-01   0.000000e+00     15s
       7   -6.4471107e+01   0.000000e+00   0.000000e+00     15s

Root relaxation: objective -6.447111e+01, 7 iterations, 0.00 seconds

    Nodes    |    Current Node    |     Objective Bounds      |     Work
 Expl Unexpl |  Obj  Depth IntInf | Incumbent    BestBd   Gap | It/Node Time

     0     0  -64.47111    0    1          -  -64.47111      -     -   15s
H    0     0                       0.8397356  -64.47111  7778%     -   15s
H    0     0                       0.8157062  -64.47111  8004%     -   15s
     0     0  -34.83005    0    4    0.81571  -34.83005  4370%     -   15s
H    0     0                       0.8132945  -34.83005  4383%     -   16s
H    0     0                       0.7798548  -34.83005  4566%     -   16s
H    0     0                       0.7798548  -34.83005  4566%     -   16s
H    0     0                       0.7798548  -34.83005  4566%     -   17s
     0     0  -29.16476    0    6    0.77985  -29.16476  3840%     -   17s
     0     0  -25.31408    0    6    0.77985  -25.31408  3346%     -   17s
     0     0  -25.24300    0    7    0.77985  -25.24300  3337%     -   17s
     0     0  -25.24165    0    7    0.77985  -25.24165  3337%     -   17s
     0     0  -23.96783    0    6    0.77985  -23.96783  3173%     -   17s
H    0     0                       0.7798548  -23.96783  3173%     -   17s
     0     0  -23.91639    0    6    0.77985  -23.91639  3167%     -   17s
     0     0  -23.71215    0    6    0.77985  -23.71215  3141%     -   17s
     0     0  -23.53574    0    7    0.77985  -23.53574  3118%     -   17s
     0     0  -23.52211    0    8    0.77985  -23.52211  3116%     -   17s
     0     0  -22.93660    0    7    0.77985  -22.93660  3041%     -   17s
H    0     0                       0.7798548  -22.93660  3041%     -   17s
     0     0  -22.93573    0    7    0.77985  -22.93573  3041%     -   17s
     0     0  -22.51398    0    9    0.77985  -22.51398  2987%     -   17s
     0     0  -22.50191    0    9    0.77985  -22.50191  2985%     -   17s
     0     0  -22.10966    0   10    0.77985  -22.10966  2935%     -   17s
     0     0  -22.10966    0    6    0.77985  -22.10966  2935%     -   18s
H    0     0                       0.7798548  -22.10966  2935%     -   18s
     0     0  -22.10966    0   10    0.77985  -22.10966  2935%     -   18s
     0     0  -21.59235    0   10    0.77985  -21.59235  2869%     -   18s
     0     0  -20.89118    0    8    0.77985  -20.89118  2779%     -   18s
     0     0  -20.66548    0    8    0.77985  -20.66548  2750%     -   18s
     0     0  -20.54253    0    9    0.77985  -20.54253  2734%     -   18s
     0     0  -20.54136    0    9    0.77985  -20.54136  2734%     -   18s
     0     0  -20.03805    0    8    0.77985  -20.03805  2669%     -   18s
     0     0  -19.79597    0    8    0.77985  -19.79597  2638%     -   19s
     0     0  -19.62581    0    8    0.77985  -19.62581  2617%     -   19s
     0     0  -19.62352    0    9    0.77985  -19.62352  2616%     -   19s
     0     0  -19.40037    0    8    0.77985  -19.40037  2588%     -   19s
     0     0  -19.36423    0    9    0.77985  -19.36423  2583%     -   19s
     0     0  -19.27754    0    8    0.77985  -19.27754  2572%     -   19s
     0     0  -19.18517    0    8    0.77985  -19.18517  2560%     -   19s
     0     0  -19.17808    0    9    0.77985  -19.17808  2559%     -   19s
     0     0  -19.01245    0    8    0.77985  -19.01245  2538%     -   19s
     0     0  -18.96636    0   11    0.77985  -18.96636  2532%     -   19s
     0     0  -18.96112    0   11    0.77985  -18.96112  2531%     -   19s
     0     0  -18.67732    0    9    0.77985  -18.67732  2495%     -   19s
     0     0  -18.61519    0    9    0.77985  -18.61519  2487%     -   19s
     0     0  -18.58391    0   10    0.77985  -18.58391  2483%     -   19s
     0     0  -18.40395    0   10    0.77985  -18.40395  2460%     -   19s
     0     0  -18.40302    0   10    0.77985  -18.40302  2460%     -   19s
     0     0  -18.40250    0   10    0.77985  -18.40250  2460%     -   19s
     0     0  -18.40166    0   10    0.77985  -18.40166  2460%     -   19s
     0     0  -18.39679    0   10    0.77985  -18.39679  2459%     -   19s
     0     0  -18.39679    0   10    0.77985  -18.39679  2459%     -   19s
     0     2  -18.39679    0   10    0.77985  -18.39679  2459%     -   19s

Cutting planes:
  Gomory: 2
  Cover: 1
  MIR: 9
  StrongCG: 1
  Lazy constraints: 15

Explored 169 nodes (772 simplex iterations) in 19.81 seconds
Thread count was 8 (of 8 available processors)

Solution count 4: 0.779855 0.813294 0.815706 0.839736 

Optimal solution found (tolerance 1.00e-04)
Best objective 7.798547856263e-01, best bound 7.798547856263e-01, gap 0.0000%

User-callback calls 684, time in user-callback 23.20 sec
